
Value of objective function: 1000000000000000019884624838656.00000000

Actual values of the variables:
maximize                    1e+30
bookcase                       31
desk                            8
chair                          40
bedframe                       38
